Route 1: 0 9 91 17 18 29 23 7 5 30 26 56 0
Route 2: 0 70 10 12 34 14 74 92 54 0
Route 3: 0 82 76 32 19 42 4 37 47 78 27 39 0
Route 4: 0 24 44 69 97 83 99 36 41 13 11 51 2 0
Route 5: 0 25 95 52 48 28 77 71 0
Route 6: 0 16 22 85 100 57 20 90 62 0
Route 7: 0 15 87 35 46 81 96 43 89 66 1 0
Route 8: 0 86 40 38 64 33 50 80 0
Route 9: 0 8 31 79 75 49 72 21 68 59 94 0
Route 10: 0 53 67 84 63 55 61 6 93 45 0
Route 11: 0 73 58 88 60 65 3 98 0
